Maximize
score: + 169.427 c0 + 91.196 c1 + 88.317 c2 + 7.496 c3 + 43.7 c4 + 125.871 c5 + 29.298 c6 + 156.444 c7 + 132.289 c8 + 1477.633 c9 + 44.182 c10 + 23.68 c11 + 120.528 c12 + 22.194 c13 + 1.511 c14 + 47.336 c15 + 0.07 c16 + 22.187 c17 + 3.549 c18 + 7.201 c19 + 30.526 c20 + 25.119 c21 + 6.146 c22 + 2.873 c23 + 11.747 c24 + 11.069 c25 + 18.751 c26 + 28.199 c27 + 0.74 c28 + 41.861 c29 + 5.805 c30 + 8.223 c31 + 112.473 c32 + 65.412 c33 + 49.833 c34 + 75.382 c35 + 56.321 c36 + 65.23 c37 + 7.454 c38 + 5.171 c39 + 13.262 c40 + 269.179 c41 + 3.876 c42 + 198.739 c43 + 7.248 c44 + 0.902 c45 + 25.287 c46 + 141.753 c47 + 284.285 c48 + 1.888 c49 + 2.517 c50 + 24.666 c51 + 51.187 c52 + 2.45 c53 + 307.319 c54 + 93.644 c55 + 2.484 c56 + 11.135 c57 + 103.853 c58 + 9.453 c59 + 110.045 c60 + 204.011 c61 + 189.484 c62 + 115.156 c63 + 72.461 c64 + 12.241 c65 + 12.968 c66 + 7.338 c67 + 2.093 c68 + 0.88 c69 + 14.7 c70 + 11.84 c71 + 15.742 c72 + 15.589 c73 + 11.504 c74 + 0.711 c75 + 0.668 c76 + 7.604 c77 + 5.678 c78 + 7.438 c79 + 8.308 c80 + 134.716 c81 + 7.835 c82 + 35.968 c83 + 5.023 c84 + 176.779 c85 + 4.958 c86 + 21.126 c87 + 39.848 c88 + 2.01 c89 + 2.266 c90 + 1.399 c91 + 266.659 c92 + 127.389 c93 + 0.438 c94 + 29.99 c95 + 10.85 c96 + 7.07 c97 + 8.643 c98 + 3.153 c99 + 2.067 c100 + 8.106 c101 + 3.162 c102 + 3.103 c103 + 0.877 c104 + 1.578 c105 + 8.004 c106 + 4.79 c107 + 4.282 c108 + 23.442 c109 + 20.369 c110 + 36.114 c111 + 14.806 c112 + 0.062 c113 + 1.299 c114 + 10.583 c115 + 0.206 c116 + 2.666 c117 + 2.452 c118 + 4.68 c119

Subject To
index_0: s18 + s19 + s20 + s24 + s25 + s26 + s27 + s29 + s30 + s31 + s32 + s35 + s40 + s44 + s45 + s51 + s54 + s65 + s67 + s88 + s96 + s98 + s99 - c0 >= 0
index_1: s34 + s36 + s37 + s38 + s39 + s40 + s41 + s42 + s44 + s45 + s47 + s65 + s66 - c1 >= 0
index_2: s21 + s22 + s23 + s29 + s30 + s34 + s35 + s36 + s40 + s41 + s42 + s48 + s49 + s50 + s51 + s52 + s54 + s55 + s59 + s60 + s61 + s62 + s63 + s64 + s100 - c2 >= 0
index_3: s69 + s70 - c3 >= 0
index_4: s17 + s18 + s20 + s22 + s23 + s25 + s26 + s29 + s30 + s31 + s32 + s37 + s39 + s43 + s47 + s49 + s51 + s53 + s55 + s57 + s60 + s61 + s63 + s64 + s67 + s88 + s91 + s92 + s94 + s95 + s100 - c4 >= 0
index_5: s89 + s90 + s92 + s93 + s94 + s95 + s100 - c5 >= 0
index_6: s1 + s2 - c6 >= 0
index_7: s2 + s3 + s4 + s8 + s9 + s12 + s13 + s14 + s15 + s16 + s17 + s33 + s70 + s72 + s76 - c7 >= 0
index_8: s3 - c8 >= 0
index_9: s20 + s28 + s30 + s43 + s80 + s99 - c9 >= 0
index_10: s89 + s90 + s92 + s93 + s94 + s95 - c10 >= 0
index_11: s11 + s85 + s89 + s93 + s94 + s95 - c11 >= 0
index_12: s20 + s89 + s93 + s94 + s95 + s100 - c12 >= 0
index_13: s71 - c13 >= 0
index_14: s17 + s20 + s30 + s42 + s43 + s80 + s99 - c14 >= 0
index_15: s67 + s68 + s70 - c15 >= 0
index_16: s21 + s22 + s23 + s29 + s30 + s34 + s35 + s36 + s40 + s41 + s42 + s48 + s49 + s50 + s51 + s52 + s54 + s55 + s59 + s60 + s61 + s62 + s63 + s64 + s65 + s100 - c16 >= 0
index_17: s21 + s35 + s36 + s53 + s62 + s63 + s64 + s65 + s100 - c17 >= 0
index_18: s49 + s88 + s89 - c18 >= 0
index_19: s27 + s56 + s67 - c19 >= 0
index_20: s2 - c20 >= 0
index_21: s29 + s35 + s36 + s41 + s42 + s44 + s53 + s60 + s63 + s100 - c21 >= 0
index_22: s34 + s36 + s37 + s38 + s39 + s40 + s41 + s42 + s44 + s45 + s47 + s65 + s66 - c22 >= 0
index_23: s0 + s1 + s2 - c23 >= 0
index_24: s68 + s69 - c24 >= 0
index_25: s29 + s34 + s36 + s41 + s42 + s44 + s71 + s73 + s74 + s100 - c25 >= 0
index_26: s71 + s73 + s74 + s77 + s78 + s79 + s80 + s81 + s82 - c26 >= 0
index_27: s35 + s36 + s38 + s49 + s62 + s65 + s66 - c27 >= 0
index_28: s30 + s39 + s41 + s42 + s46 + s47 + s49 + s51 + s52 + s53 + s56 + s60 + s61 + s63 + s64 + s89 + s91 + s100 - c28 >= 0
index_29: s2 + s3 + s4 + s8 + s9 + s12 + s13 + s15 + s16 + s17 + s71 + s72 + s76 - c29 >= 0
index_30: s14 + s15 - c30 >= 0
index_31: s21 + s22 + s30 + s39 + s47 + s49 + s51 + s52 + s63 + s64 + s65 + s91 + s100 - c31 >= 0
index_32: s36 + s37 + s38 + s40 + s41 + s42 + s44 + s45 + s47 - c32 >= 0
index_33: s35 + s36 + s38 + s42 + s49 + s62 + s65 + s66 - c33 >= 0
index_34: s20 + s25 + s26 + s27 + s29 + s31 + s32 + s40 + s51 + s65 + s67 + s100 - c34 >= 0
index_35: s18 + s20 + s24 + s25 + s27 + s30 + s33 + s35 + s44 + s45 + s54 + s88 + s96 + s98 + s99 - c35 >= 0
index_36: s17 + s34 + s47 + s100 - c36 >= 0
index_37: s2 + s9 + s10 + s16 + s19 + s20 + s21 + s22 + s23 + s26 + s27 + s30 + s32 + s33 + s34 + s37 + s38 + s39 + s40 + s41 + s42 + s43 + s44 + s47 + s50 + s51 + s54 + s55 + s58 + s60 + s62 + s63 + s65 + s66 + s69 + s89 + s90 + s92 + s93 + s95 + s96 + s99 - c37 >= 0
index_38: s71 + s72 + s73 + s74 - c38 >= 0
index_39: s72 + s74 + s82 + s83 + s84 + s85 - c39 >= 0
index_40: s4 + s29 + s40 + s43 + s55 + s66 - c40 >= 0
index_41: s16 + s72 + s73 + s74 + s77 + s78 + s83 - c41 >= 0
index_42: s3 + s4 + s13 - c42 >= 0
index_43: s20 + s23 + s39 + s46 + s47 + s78 + s81 + s90 + s94 - c43 >= 0
index_44: s13 + s21 + s22 + s23 + s66 + s89 + s92 + s100 - c44 >= 0
index_45: s3 + s4 + s12 + s13 + s14 - c45 >= 0
index_46: s11 + s14 + s85 + s89 + s90 + s92 + s93 + s94 + s95 + s100 - c46 >= 0
index_47: s3 + s4 + s5 + s6 + s7 + s8 + s12 + s13 + s14 + s70 + s71 + s72 + s74 + s75 + s77 + s78 + s79 + s80 + s82 + s83 + s84 + s85 + s86 - c47 >= 0
index_48: s17 + s19 + s21 + s28 + s34 + s36 + s48 + s49 + s52 + s61 + s63 + s64 + s88 + s98 + s100 - c48 >= 0
index_49: s57 + s59 + s60 - c49 >= 0
index_50: s24 + s27 + s43 + s61 + s93 - c50 >= 0
index_51: s22 + s24 + s27 + s28 + s34 + s35 + s43 + s47 + s57 + s61 + s67 + s94 + s96 + s100 - c51 >= 0
index_52: s17 + s20 + s21 + s39 - c52 >= 0
index_53: s28 + s33 + s35 + s39 + s46 + s61 - c53 >= 0
index_54: s21 + s34 + s35 + s36 + s40 + s49 + s51 + s52 + s88 - c54 >= 0
index_55: s15 + s17 + s18 + s20 + s23 + s25 + s27 + s29 + s30 + s32 + s33 + s34 + s36 + s38 + s39 + s42 + s43 + s47 + s48 + s53 + s57 + s59 + s64 + s66 + s67 + s88 + s92 + s94 + s96 - c55 >= 0
index_56: s17 + s18 + s20 + s21 + s22 + s23 + s40 + s54 + s63 + s65 + s67 + s82 + s88 + s90 + s91 + s92 + s99 - c56 >= 0
index_57: s17 + s18 + s20 + s21 + s22 + s23 + s24 + s39 + s40 + s57 + s63 + s88 + s90 + s91 + s92 + s93 + s95 + s96 - c57 >= 0
index_58: s23 + s24 + s39 + s43 + s51 + s55 + s85 - c58 >= 0
index_59: s23 + s31 + s36 + s50 + s60 + s62 + s64 + s80 + s89 - c59 >= 0
index_60: s20 + s25 + s29 + s30 + s31 + s37 + s43 + s49 + s51 + s55 + s57 + s60 + s61 + s88 + s93 + s95 + s96 + s100 - c60 >= 0
index_61: s18 + s22 + s26 + s27 + s32 + s38 + s44 + s51 + s53 + s63 + s64 + s88 + s91 + s92 + s94 - c61 >= 0
index_62: s23 + s47 + s57 + s88 + s94 - c62 >= 0
index_63: s26 + s27 + s32 + s34 + s36 + s38 + s42 + s44 + s48 + s50 + s61 + s62 + s64 + s66 + s67 - c63 >= 0
index_64: s32 + s33 + s34 + s36 + s42 + s48 + s62 + s66 + s67 - c64 >= 0
index_65: s35 + s36 + s38 + s42 + s48 + s49 - c65 >= 0
index_66: s27 + s28 + s34 + s35 + s48 + s94 - c66 >= 0
index_67: s63 - c67 >= 0
index_68: s9 + s10 + s96 - c68 >= 0
index_69: s30 + s39 + s54 - c69 >= 0
index_70: s26 + s39 + s67 - c70 >= 0
index_71: s23 + s26 + s27 + s33 + s38 + s40 + s42 + s44 + s47 + s48 + s50 + s55 + s56 + s60 + s61 + s64 - c71 >= 0
index_72: s20 + s21 + s22 + s23 + s24 + s25 + s29 + s37 + s40 + s41 + s42 + s46 + s49 + s52 + s54 + s59 + s61 + s63 + s65 + s71 + s72 + s73 + s80 + s82 + s88 + s90 + s91 + s93 + s94 + s96 + s98 + s99 + s100 - c72 >= 0
index_73: s28 + s33 + s35 + s39 + s40 + s47 - c73 >= 0
index_74: s28 + s33 + s35 + s39 + s40 + s48 - c74 >= 0
index_75: s40 + s47 + s48 + s52 - c75 >= 0
index_76: s18 + s24 + s25 + s27 + s31 + s41 + s42 + s45 + s47 + s50 + s61 + s94 + s100 - c76 >= 0
index_77: s27 + s28 + s34 + s35 + s48 + s94 + s100 - c77 >= 0
index_78: s10 + s31 + s32 + s94 - c78 >= 0
index_79: s24 + s59 + s81 - c79 >= 0
index_80: s9 + s26 + s39 + s94 - c80 >= 0
index_81: s15 + s20 + s24 + s25 + s27 + s28 + s30 + s32 + s44 + s80 + s94 - c81 >= 0
index_82: s5 + s6 + s9 + s15 + s16 + s23 + s40 + s74 + s75 + s76 + s77 + s78 + s79 + s80 + s81 + s82 + s86 - c82 >= 0
index_83: s8 + s9 + s10 + s12 - c83 >= 0
index_84: s15 + s74 + s75 - c84 >= 0
index_85: s22 + s40 + s41 + s42 + s45 + s48 + s51 + s54 + s62 + s86 + s87 - c85 >= 0
index_86: s9 - c86 >= 0
index_87: s9 + s79 + s80 + s82 - c87 >= 0
index_88: s78 + s79 + s80 + s82 - c88 >= 0
index_89: s18 + s20 + s22 + s27 + s30 + s34 + s36 + s46 + s48 + s61 + s64 + s65 + s89 + s91 + s92 + s96 - c89 >= 0
index_90: s20 + s25 + s26 + s29 + s34 + s36 + s40 + s51 + s65 + s66 + s67 + s90 - c90 >= 0
index_91: s38 + s39 + s40 + s45 + s65 - c91 >= 0
index_92: s15 + s39 + s50 + s74 + s79 + s88 - c92 >= 0
index_93: s3 + s14 + s21 + s22 + s27 + s31 + s32 + s34 + s35 + s36 + s39 + s48 + s62 + s64 + s65 + s66 + s88 - c93 >= 0
index_94: s23 + s29 + s30 + s45 + s62 + s66 - c94 >= 0
index_95: s5 + s6 + s7 + s17 - c95 >= 0
index_96: s4 + s5 + s6 + s75 - c96 >= 0
index_97: s44 + s45 + s46 + s63 + s88 - c97 >= 0
index_98: s17 + s37 + s44 + s45 + s54 + s63 + s88 + s98 - c98 >= 0
index_99: s4 + s5 + s6 + s7 + s10 + s11 + s86 - c99 >= 0
index_100: s38 + s47 + s50 + s65 + s66 - c100 >= 0
index_101: s8 + s86 + s87 + s88 - c101 >= 0
index_102: s23 + s77 + s81 - c102 >= 0
index_103: s15 + s16 + s74 + s76 + s77 + s86 - c103 >= 0
index_104: s17 + s18 + s19 + s88 - c104 >= 0
index_105: s8 + s93 + s94 + s95 + s96 - c105 >= 0
index_106: s30 + s33 + s34 + s35 + s42 + s44 + s67 - c106 >= 0
index_107: s12 + s27 + s45 + s50 + s84 + s85 - c107 >= 0
index_108: s19 + s21 + s22 + s23 + s24 + s25 + s36 + s37 + s44 + s54 + s59 + s60 + s73 + s80 + s82 + s88 + s98 - c108 >= 0
index_109: s10 + s15 + s31 + s32 + s85 + s94 - c109 >= 0
index_110: s26 + s31 + s32 + s35 + s36 + s48 + s62 - c110 >= 0
index_111: s63 + s84 - c111 >= 0
index_112: s12 + s39 + s85 + s86 + s95 + s96 + s100 - c112 >= 0
index_113: s24 + s27 + s39 + s40 + s41 + s43 + s61 + s63 + s66 + s94 + s96 + s98 + s100 - c113 >= 0
index_114: s9 + s20 + s50 + s63 + s85 + s86 + s95 + s96 + s100 - c114 >= 0
index_115: s34 + s36 + s45 + s46 + s51 + s62 - c115 >= 0
index_116: s17 + s18 + s19 + s20 + s22 + s23 + s24 + s25 + s28 + s30 + s32 + s42 + s44 + s62 + s63 + s76 + s80 + s83 + s90 + s91 + s93 + s100 - c116 >= 0
index_117: s15 + s26 + s28 + s39 + s42 + s73 + s86 + s88 + s91 + s96 + s98 + s99 - c117 >= 0
index_118: s23 + s40 + s41 + s42 + s47 + s49 + s52 + s54 + s55 + s60 + s62 + s64 + s65 + s74 + s75 + s78 + s80 + s82 + s88 + s98 + s99 - c118 >= 0
index_119: s47 + s49 + s50 + s51 + s60 + s64 - c119 >= 0
length: s0 + s1 + s2 + s3 + s4 + s5 + s6 + s7 + s8 + s9 + s10 + s11 + s12 + s13 + s14 + s15 + s16 + s17 + s18 + s19 + s20 + s21 + s22 + s23 + s24 + s25 + s26 + s27 + s28 + s29 + s30 + s31 + s32 + s33 + s34 + s35 + s36 + s37 + s38 + s39 + s40 + s41 + s42 + s43 + s44 + s45 + s46 + s47 + s48 + s49 + s50 + s51 + s52 + s53 + s54 + s55 + s56 + s57 + s58 + s59 + s60 + s61 + s62 + s63 + s64 + s65 + s66 + s67 + s68 + s69 + s70 + s71 + s72 + s73 + s74 + s75 + s76 + s77 + s78 + s79 + s80 + s81 + s82 + s83 + s84 + s85 + s86 + s87 + s88 + s89 + s90 + s91 + s92 + s93 + s94 + s95 + s96 + s97 + s98 + s99 + s100 <= 7



Binary
c0
c1
c2
c3
c4
c5
c6
c7
c8
c9
c10
c11
c12
c13
c14
c15
c16
c17
c18
c19
c20
c21
c22
c23
c24
c25
c26
c27
c28
c29
c30
c31
c32
c33
c34
c35
c36
c37
c38
c39
c40
c41
c42
c43
c44
c45
c46
c47
c48
c49
c50
c51
c52
c53
c54
c55
c56
c57
c58
c59
c60
c61
c62
c63
c64
c65
c66
c67
c68
c69
c70
c71
c72
c73
c74
c75
c76
c77
c78
c79
c80
c81
c82
c83
c84
c85
c86
c87
c88
c89
c90
c91
c92
c93
c94
c95
c96
c97
c98
c99
c100
c101
c102
c103
c104
c105
c106
c107
c108
c109
c110
c111
c112
c113
c114
c115
c116
c117
c118
c119
s0
s1
s2
s3
s4
s5
s6
s7
s8
s9
s10
s11
s12
s13
s14
s15
s16
s17
s18
s19
s20
s21
s22
s23
s24
s25
s26
s27
s28
s29
s30
s31
s32
s33
s34
s35
s36
s37
s38
s39
s40
s41
s42
s43
s44
s45
s46
s47
s48
s49
s50
s51
s52
s53
s54
s55
s56
s57
s58
s59
s60
s61
s62
s63
s64
s65
s66
s67
s68
s69
s70
s71
s72
s73
s74
s75
s76
s77
s78
s79
s80
s81
s82
s83
s84
s85
s86
s87
s88
s89
s90
s91
s92
s93
s94
s95
s96
s97
s98
s99
s100
End